Results/Experiment 1 Results/Existing Benchmark/RES_80/i-80-75-10.txt
solutions: 0 nodes: 4  modelTime: 175  solveTime: 23  totalTime: 210  modelSize: 7874  readTime: 12 matchingSize: 0
