Results/Experiment 2 Results/Existing Benchmark/i-80-75-10.lp
clingo version 5.4.0
Reading from tempSRTISolver.lp ...
Solving...
UNSATISFIABLE

Models       : 0
Calls        : 1
Time         : 10.802s (Solving: 1.12s 1st Model: 0.00s Unsat: 1.12s)
CPU Time     : 10.801s
